size = 10;
tiles = 15;
expressions = [
    "( ([2 3 4 5 6 7 8 9 10 11 12 13 14 15 16]* 1{1} [2 3 4 5 6 7 8 9 10 11 12 13 14 15 16]{9} [2 3 4 5 6 7 8 9 10 11 12 13 14 15 16] 1{1} [2 3 4 5 6 7 8 9 10 11 12 13 14 15 16]{9} [2 3 4 5 6 7 8 9 10 11 12 13 14 15 16] 1{1}  [2 3 4 5 6 7 8 9 10 11 12 13 14 15 16]*) | ([2 3 4 5 6 7 8 9 10 11 12 13 14 15 16]* 1{3}  [2 3 4 5 6 7 8 9 10 11 12 13 14 15 16]*) | ([2 3 4 5 6 7 8 9 10 11 12 13 14 15 16]* 1{1} [2 3 4 5 6 7 8 9 10 11 12 13 14 15 16] [2 3 4 5 6 7 8 9 10 11 12 13 14 15 16]{9} 1{1} [2 3 4 5 6 7 8 9 10 11 12 13 14 15 16] [2 3 4 5 6 7 8 9 10 11 12 13 14 15 16]{9} 1{1}  [2 3 4 5 6 7 8 9 10 11 12 13 14 15 16]*) | ([2 3 4 5 6 7 8 9 10 11 12 13 14 15 16]* 1{3}  [2 3 4 5 6 7 8 9 10 11 12 13 14 15 16]*) | ([2 3 4 5 6 7 8 9 10 11 12 13 14 15 16]* 1{1} [2 3 4 5 6 7 8 9 10 11 12 13 14 15 16] [2 3 4 5 6 7 8 9 10 11 12 13 14 15 16]{9} 1{1} [2 3 4 5 6 7 8 9 10 11 12 13 14 15 16] [2 3 4 5 6 7 8 9 10 11 12 13 14 15 16]{9} 1{1}  [2 3 4 5 6 7 8 9 10 11 12 13 14 15 16]*) | ([2 3 4 5 6 7 8 9 10 11 12 13 14 15 16]* 1{3}  [2 3 4 5 6 7 8 9 10 11 12 13 14 15 16]*) | ([2 3 4 5 6 7 8 9 10 11 12 13 14 15 16]* 1{1} [2 3 4 5 6 7 8 9 10 11 12 13 14 15 16]{9} [2 3 4 5 6 7 8 9 10 11 12 13 14 15 16] 1{1} [2 3 4 5 6 7 8 9 10 11 12 13 14 15 16]{9} [2 3 4 5 6 7 8 9 10 11 12 13 14 15 16] 1{1}  [2 3 4 5 6 7 8 9 10 11 12 13 14 15 16]*) | ([2 3 4 5 6 7 8 9 10 11 12 13 14 15 16]* 1{3}  [2 3 4 5 6 7 8 9 10 11 12 13 14 15 16]*) )",
    "( ([1 3 4 5 6 7 8 9 10 11 12 13 14 15 16]* 2{7} [1 3 4 5 6 7 8 9 10 11 12 13 14 15 16]{3} [1 3 4 5 6 7 8 9 10 11 12 13 14 15 16] [1 3 4 5 6 7 8 9 10 11 12 13 14 15 16]{1} 2{6} [1 3 4 5 6 7 8 9 10 11 12 13 14 15 16]{3} [1 3 4 5 6 7 8 9 10 11 12 13 14 15 16] [1 3 4 5 6 7 8 9 10 11 12 13 14 15 16]{3} 2{4} [1 3 4 5 6 7 8 9 10 11 12 13 14 15 16]{3} [1 3 4 5 6 7 8 9 10 11 12 13 14 15 16] [1 3 4 5 6 7 8 9 10 11 12 13 14 15 16]{6} 2{1}  [1 3 4 5 6 7 8 9 10 11 12 13 14 15 16]*) | ([1 3 4 5 6 7 8 9 10 11 12 13 14 15 16]* 2{1} [1 3 4 5 6 7 8 9 10 11 12 13 14 15 16] [1 3 4 5 6 7 8 9 10 11 12 13 14 15 16]{8} 2{2} [1 3 4 5 6 7 8 9 10 11 12 13 14 15 16] [1 3 4 5 6 7 8 9 10 11 12 13 14 15 16]{8} 2{2} [1 3 4 5 6 7 8 9 10 11 12 13 14 15 16] [1 3 4 5 6 7 8 9 10 11 12 13 14 15 16]{7} 2{3} [1 3 4 5 6 7 8 9 10 11 12 13 14 15 16] [1 3 4 5 6 7 8 9 10 11 12 13 14 15 16]{7} 2{3} [1 3 4 5 6 7 8 9 10 11 12 13 14 15 16] [1 3 4 5 6 7 8 9 10 11 12 13 14 15 16]{7} 2{3} [1 3 4 5 6 7 8 9 10 11 12 13 14 15 16] [1 3 4 5 6 7 8 9 10 11 12 13 14 15 16]{6} 2{4}  [1 3 4 5 6 7 8 9 10 11 12 13 14 15 16]*) | ([1 3 4 5 6 7 8 9 10 11 12 13 14 15 16]* 2{1} [1 3 4 5 6 7 8 9 10 11 12 13 14 15 16]{6} [1 3 4 5 6 7 8 9 10 11 12 13 14 15 16] [1 3 4 5 6 7 8 9 10 11 12 13 14 15 16]{3} 2{4} [1 3 4 5 6 7 8 9 10 11 12 13 14 15 16]{3} [1 3 4 5 6 7 8 9 10 11 12 13 14 15 16] [1 3 4 5 6 7 8 9 10 11 12 13 14 15 16]{3} 2{6} [1 3 4 5 6 7 8 9 10 11 12 13 14 15 16]{1} [1 3 4 5 6 7 8 9 10 11 12 13 14 15 16] [1 3 4 5 6 7 8 9 10 11 12 13 14 15 16]{3} 2{7}  [1 3 4 5 6 7 8 9 10 11 12 13 14 15 16]*) | ([1 3 4 5 6 7 8 9 10 11 12 13 14 15 16]* 2{4} [1 3 4 5 6 7 8 9 10 11 12 13 14 15 16]{6} [1 3 4 5 6 7 8 9 10 11 12 13 14 15 16] 2{3} [1 3 4 5 6 7 8 9 10 11 12 13 14 15 16]{7} [1 3 4 5 6 7 8 9 10 11 12 13 14 15 16] 2{3} [1 3 4 5 6 7 8 9 10 11 12 13 14 15 16]{7} [1 3 4 5 6 7 8 9 10 11 12 13 14 15 16] 2{3} [1 3 4 5 6 7 8 9 10 11 12 13 14 15 16]{7} [1 3 4 5 6 7 8 9 10 11 12 13 14 15 16] 2{2} [1 3 4 5 6 7 8 9 10 11 12 13 14 15 16]{8} [1 3 4 5 6 7 8 9 10 11 12 13 14 15 16] 2{2} [1 3 4 5 6 7 8 9 10 11 12 13 14 15 16]{8} [1 3 4 5 6 7 8 9 10 11 12 13 14 15 16] 2{1}  [1 3 4 5 6 7 8 9 10 11 12 13 14 15 16]*) | ([1 3 4 5 6 7 8 9 10 11 12 13 14 15 16]* 2{7} [1 3 4 5 6 7 8 9 10 11 12 13 14 15 16] [1 3 4 5 6 7 8 9 10 11 12 13 14 15 16]{3} 2{6} [1 3 4 5 6 7 8 9 10 11 12 13 14 15 16]{1} [1 3 4 5 6 7 8 9 10 11 12 13 14 15 16] [1 3 4 5 6 7 8 9 10 11 12 13 14 15 16]{3} 2{4} [1 3 4 5 6 7 8 9 10 11 12 13 14 15 16]{3} [1 3 4 5 6 7 8 9 10 11 12 13 14 15 16] [1 3 4 5 6 7 8 9 10 11 12 13 14 15 16]{3} 2{1}  [1 3 4 5 6 7 8 9 10 11 12 13 14 15 16]*) | ([1 3 4 5 6 7 8 9 10 11 12 13 14 15 16]* 2{1} [1 3 4 5 6 7 8 9 10 11 12 13 14 15 16]{9} [1 3 4 5 6 7 8 9 10 11 12 13 14 15 16] 2{2} [1 3 4 5 6 7 8 9 10 11 12 13 14 15 16]{8} [1 3 4 5 6 7 8 9 10 11 12 13 14 15 16] 2{2} [1 3 4 5 6 7 8 9 10 11 12 13 14 15 16]{8} [1 3 4 5 6 7 8 9 10 11 12 13 14 15 16] 2{3} [1 3 4 5 6 7 8 9 10 11 12 13 14 15 16]{7} [1 3 4 5 6 7 8 9 10 11 12 13 14 15 16] 2{3} [1 3 4 5 6 7 8 9 10 11 12 13 14 15 16]{7} [1 3 4 5 6 7 8 9 10 11 12 13 14 15 16] 2{3} [1 3 4 5 6 7 8 9 10 11 12 13 14 15 16]{7} [1 3 4 5 6 7 8 9 10 11 12 13 14 15 16] 2{4}  [1 3 4 5 6 7 8 9 10 11 12 13 14 15 16]*) | ([1 3 4 5 6 7 8 9 10 11 12 13 14 15 16]* 2{1} [1 3 4 5 6 7 8 9 10 11 12 13 14 15 16]{3} [1 3 4 5 6 7 8 9 10 11 12 13 14 15 16] [1 3 4 5 6 7 8 9 10 11 12 13 14 15 16]{3} 2{4} [1 3 4 5 6 7 8 9 10 11 12 13 14 15 16]{3} [1 3 4 5 6 7 8 9 10 11 12 13 14 15 16] [1 3 4 5 6 7 8 9 10 11 12 13 14 15 16]{1} 2{6} [1 3 4 5 6 7 8 9 10 11 12 13 14 15 16]{3} [1 3 4 5 6 7 8 9 10 11 12 13 14 15 16] 2{7}  [1 3 4 5 6 7 8 9 10 11 12 13 14 15 16]*) | ([1 3 4 5 6 7 8 9 10 11 12 13 14 15 16]* 2{4} [1 3 4 5 6 7 8 9 10 11 12 13 14 15 16] [1 3 4 5 6 7 8 9 10 11 12 13 14 15 16]{7} 2{3} [1 3 4 5 6 7 8 9 10 11 12 13 14 15 16] [1 3 4 5 6 7 8 9 10 11 12 13 14 15 16]{7} 2{3} [1 3 4 5 6 7 8 9 10 11 12 13 14 15 16] [1 3 4 5 6 7 8 9 10 11 12 13 14 15 16]{7} 2{3} [1 3 4 5 6 7 8 9 10 11 12 13 14 15 16] [1 3 4 5 6 7 8 9 10 11 12 13 14 15 16]{8} 2{2} [1 3 4 5 6 7 8 9 10 11 12 13 14 15 16] [1 3 4 5 6 7 8 9 10 11 12 13 14 15 16]{8} 2{2} [1 3 4 5 6 7 8 9 10 11 12 13 14 15 16] [1 3 4 5 6 7 8 9 10 11 12 13 14 15 16]{9} 2{1}  [1 3 4 5 6 7 8 9 10 11 12 13 14 15 16]*) )",
    "( ([1 2 4 5 6 7 8 9 10 11 12 13 14 15 16]* 3{1}  [1 2 4 5 6 7 8 9 10 11 12 13 14 15 16]*) | ([1 2 4 5 6 7 8 9 10 11 12 13 14 15 16]* 3{1}  [1 2 4 5 6 7 8 9 10 11 12 13 14 15 16]*) | ([1 2 4 5 6 7 8 9 10 11 12 13 14 15 16]* 3{1}  [1 2 4 5 6 7 8 9 10 11 12 13 14 15 16]*) | ([1 2 4 5 6 7 8 9 10 11 12 13 14 15 16]* 3{1}  [1 2 4 5 6 7 8 9 10 11 12 13 14 15 16]*) | ([1 2 4 5 6 7 8 9 10 11 12 13 14 15 16]* 3{1}  [1 2 4 5 6 7 8 9 10 11 12 13 14 15 16]*) | ([1 2 4 5 6 7 8 9 10 11 12 13 14 15 16]* 3{1}  [1 2 4 5 6 7 8 9 10 11 12 13 14 15 16]*) | ([1 2 4 5 6 7 8 9 10 11 12 13 14 15 16]* 3{1}  [1 2 4 5 6 7 8 9 10 11 12 13 14 15 16]*) | ([1 2 4 5 6 7 8 9 10 11 12 13 14 15 16]* 3{1}  [1 2 4 5 6 7 8 9 10 11 12 13 14 15 16]*) )",
    "( ([1 2 3 5 6 7 8 9 10 11 12 13 14 15 16]* 4{2} [1 2 3 5 6 7 8 9 10 11 12 13 14 15 16] [1 2 3 5 6 7 8 9 10 11 12 13 14 15 16]{9} 4{1}  [1 2 3 5 6 7 8 9 10 11 12 13 14 15 16]*) | ([1 2 3 5 6 7 8 9 10 11 12 13 14 15 16]* 4{1} [1 2 3 5 6 7 8 9 10 11 12 13 14 15 16] [1 2 3 5 6 7 8 9 10 11 12 13 14 15 16]{8} 4{2}  [1 2 3 5 6 7 8 9 10 11 12 13 14 15 16]*) | ([1 2 3 5 6 7 8 9 10 11 12 13 14 15 16]* 4{1} [1 2 3 5 6 7 8 9 10 11 12 13 14 15 16]{9} [1 2 3 5 6 7 8 9 10 11 12 13 14 15 16] 4{2}  [1 2 3 5 6 7 8 9 10 11 12 13 14 15 16]*) | ([1 2 3 5 6 7 8 9 10 11 12 13 14 15 16]* 4{2} [1 2 3 5 6 7 8 9 10 11 12 13 14 15 16]{8} [1 2 3 5 6 7 8 9 10 11 12 13 14 15 16] 4{1}  [1 2 3 5 6 7 8 9 10 11 12 13 14 15 16]*) | ([1 2 3 5 6 7 8 9 10 11 12 13 14 15 16]* 4{2} [1 2 3 5 6 7 8 9 10 11 12 13 14 15 16]{8} [1 2 3 5 6 7 8 9 10 11 12 13 14 15 16] 4{1}  [1 2 3 5 6 7 8 9 10 11 12 13 14 15 16]*) | ([1 2 3 5 6 7 8 9 10 11 12 13 14 15 16]* 4{1} [1 2 3 5 6 7 8 9 10 11 12 13 14 15 16]{9} [1 2 3 5 6 7 8 9 10 11 12 13 14 15 16] 4{2}  [1 2 3 5 6 7 8 9 10 11 12 13 14 15 16]*) | ([1 2 3 5 6 7 8 9 10 11 12 13 14 15 16]* 4{1} [1 2 3 5 6 7 8 9 10 11 12 13 14 15 16] [1 2 3 5 6 7 8 9 10 11 12 13 14 15 16]{8} 4{2}  [1 2 3 5 6 7 8 9 10 11 12 13 14 15 16]*) | ([1 2 3 5 6 7 8 9 10 11 12 13 14 15 16]* 4{2} [1 2 3 5 6 7 8 9 10 11 12 13 14 15 16] [1 2 3 5 6 7 8 9 10 11 12 13 14 15 16]{9} 4{1}  [1 2 3 5 6 7 8 9 10 11 12 13 14 15 16]*) )",
    "( ([1 2 3 4 6 7 8 9 10 11 12 13 14 15 16]* 5{1}  [1 2 3 4 6 7 8 9 10 11 12 13 14 15 16]*) | ([1 2 3 4 6 7 8 9 10 11 12 13 14 15 16]* 5{1}  [1 2 3 4 6 7 8 9 10 11 12 13 14 15 16]*) | ([1 2 3 4 6 7 8 9 10 11 12 13 14 15 16]* 5{1}  [1 2 3 4 6 7 8 9 10 11 12 13 14 15 16]*) | ([1 2 3 4 6 7 8 9 10 11 12 13 14 15 16]* 5{1}  [1 2 3 4 6 7 8 9 10 11 12 13 14 15 16]*) | ([1 2 3 4 6 7 8 9 10 11 12 13 14 15 16]* 5{1}  [1 2 3 4 6 7 8 9 10 11 12 13 14 15 16]*) | ([1 2 3 4 6 7 8 9 10 11 12 13 14 15 16]* 5{1}  [1 2 3 4 6 7 8 9 10 11 12 13 14 15 16]*) | ([1 2 3 4 6 7 8 9 10 11 12 13 14 15 16]* 5{1}  [1 2 3 4 6 7 8 9 10 11 12 13 14 15 16]*) | ([1 2 3 4 6 7 8 9 10 11 12 13 14 15 16]* 5{1}  [1 2 3 4 6 7 8 9 10 11 12 13 14 15 16]*) )",
    "( ([1 2 3 4 5 7 8 9 10 11 12 13 14 15 16]* 6{2} [1 2 3 4 5 7 8 9 10 11 12 13 14 15 16]{7} [1 2 3 4 5 7 8 9 10 11 12 13 14 15 16] [1 2 3 4 5 7 8 9 10 11 12 13 14 15 16]{2} 6{1} [1 2 3 4 5 7 8 9 10 11 12 13 14 15 16]{7} [1 2 3 4 5 7 8 9 10 11 12 13 14 15 16] [1 2 3 4 5 7 8 9 10 11 12 13 14 15 16]{1} 6{2} [1 2 3 4 5 7 8 9 10 11 12 13 14 15 16]{7} [1 2 3 4 5 7 8 9 10 11 12 13 14 15 16] 6{2}  [1 2 3 4 5 7 8 9 10 11 12 13 14 15 16]*) | ([1 2 3 4 5 7 8 9 10 11 12 13 14 15 16]* 6{1} [1 2 3 4 5 7 8 9 10 11 12 13 14 15 16]{5} [1 2 3 4 5 7 8 9 10 11 12 13 14 15 16] [1 2 3 4 5 7 8 9 10 11 12 13 14 15 16]{4} 6{2} [1 2 3 4 5 7 8 9 10 11 12 13 14 15 16]{1} 6{1} [1 2 3 4 5 7 8 9 10 11 12 13 14 15 16]{2} [1 2 3 4 5 7 8 9 10 11 12 13 14 15 16] [1 2 3 4 5 7 8 9 10 11 12 13 14 15 16]{5} 6{3}  [1 2 3 4 5 7 8 9 10 11 12 13 14 15 16]*) | ([1 2 3 4 5 7 8 9 10 11 12 13 14 15 16]* 6{2} [1 2 3 4 5 7 8 9 10 11 12 13 14 15 16] [1 2 3 4 5 7 8 9 10 11 12 13 14 15 16]{7} 6{2} [1 2 3 4 5 7 8 9 10 11 12 13 14 15 16]{1} [1 2 3 4 5 7 8 9 10 11 12 13 14 15 16] [1 2 3 4 5 7 8 9 10 11 12 13 14 15 16]{7} 6{1} [1 2 3 4 5 7 8 9 10 11 12 13 14 15 16]{2} [1 2 3 4 5 7 8 9 10 11 12 13 14 15 16] [1 2 3 4 5 7 8 9 10 11 12 13 14 15 16]{7} 6{2}  [1 2 3 4 5 7 8 9 10 11 12 13 14 15 16]*) | ([1 2 3 4 5 7 8 9 10 11 12 13 14 15 16]* 6{3} [1 2 3 4 5 7 8 9 10 11 12 13 14 15 16]{5} [1 2 3 4 5 7 8 9 10 11 12 13 14 15 16] [1 2 3 4 5 7 8 9 10 11 12 13 14 15 16]{2} 6{1} [1 2 3 4 5 7 8 9 10 11 12 13 14 15 16]{1} 6{2} [1 2 3 4 5 7 8 9 10 11 12 13 14 15 16]{4} [1 2 3 4 5 7 8 9 10 11 12 13 14 15 16] [1 2 3 4 5 7 8 9 10 11 12 13 14 15 16]{5} 6{1}  [1 2 3 4 5 7 8 9 10 11 12 13 14 15 16]*) | ([1 2 3 4 5 7 8 9 10 11 12 13 14 15 16]* 6{2} [1 2 3 4 5 7 8 9 10 11 12 13 14 15 16]{1} [1 2 3 4 5 7 8 9 10 11 12 13 14 15 16] [1 2 3 4 5 7 8 9 10 11 12 13 14 15 16]{7} 6{1} [1 2 3 4 5 7 8 9 10 11 12 13 14 15 16]{2} [1 2 3 4 5 7 8 9 10 11 12 13 14 15 16] [1 2 3 4 5 7 8 9 10 11 12 13 14 15 16]{7} 6{2} [1 2 3 4 5 7 8 9 10 11 12 13 14 15 16]{1} [1 2 3 4 5 7 8 9 10 11 12 13 14 15 16] [1 2 3 4 5 7 8 9 10 11 12 13 14 15 16]{8} 6{2}  [1 2 3 4 5 7 8 9 10 11 12 13 14 15 16]*) | ([1 2 3 4 5 7 8 9 10 11 12 13 14 15 16]* 6{1} [1 2 3 4 5 7 8 9 10 11 12 13 14 15 16]{4} [1 2 3 4 5 7 8 9 10 11 12 13 14 15 16] [1 2 3 4 5 7 8 9 10 11 12 13 14 15 16]{2} 6{1} [1 2 3 4 5 7 8 9 10 11 12 13 14 15 16]{1} 6{2} [1 2 3 4 5 7 8 9 10 11 12 13 14 15 16]{4} [1 2 3 4 5 7 8 9 10 11 12 13 14 15 16] [1 2 3 4 5 7 8 9 10 11 12 13 14 15 16]{2} 6{3}  [1 2 3 4 5 7 8 9 10 11 12 13 14 15 16]*) | ([1 2 3 4 5 7 8 9 10 11 12 13 14 15 16]* 6{2} [1 2 3 4 5 7 8 9 10 11 12 13 14 15 16]{8} [1 2 3 4 5 7 8 9 10 11 12 13 14 15 16] [1 2 3 4 5 7 8 9 10 11 12 13 14 15 16]{1} 6{2} [1 2 3 4 5 7 8 9 10 11 12 13 14 15 16]{7} [1 2 3 4 5 7 8 9 10 11 12 13 14 15 16] [1 2 3 4 5 7 8 9 10 11 12 13 14 15 16]{2} 6{1} [1 2 3 4 5 7 8 9 10 11 12 13 14 15 16]{7} [1 2 3 4 5 7 8 9 10 11 12 13 14 15 16] [1 2 3 4 5 7 8 9 10 11 12 13 14 15 16]{1} 6{2}  [1 2 3 4 5 7 8 9 10 11 12 13 14 15 16]*) | ([1 2 3 4 5 7 8 9 10 11 12 13 14 15 16]* 6{3} [1 2 3 4 5 7 8 9 10 11 12 13 14 15 16]{2} [1 2 3 4 5 7 8 9 10 11 12 13 14 15 16] [1 2 3 4 5 7 8 9 10 11 12 13 14 15 16]{4} 6{2} [1 2 3 4 5 7 8 9 10 11 12 13 14 15 16]{1} 6{1} [1 2 3 4 5 7 8 9 10 11 12 13 14 15 16]{2} [1 2 3 4 5 7 8 9 10 11 12 13 14 15 16] [1 2 3 4 5 7 8 9 10 11 12 13 14 15 16]{4} 6{1}  [1 2 3 4 5 7 8 9 10 11 12 13 14 15 16]*) )",
    "( ([1 2 3 4 5 6 8 9 10 11 12 13 14 15 16]* 7{3}  [1 2 3 4 5 6 8 9 10 11 12 13 14 15 16]*) | ([1 2 3 4 5 6 8 9 10 11 12 13 14 15 16]* 7{1} [1 2 3 4 5 6 8 9 10 11 12 13 14 15 16]{9} [1 2 3 4 5 6 8 9 10 11 12 13 14 15 16] 7{1} [1 2 3 4 5 6 8 9 10 11 12 13 14 15 16]{9} [1 2 3 4 5 6 8 9 10 11 12 13 14 15 16] 7{1}  [1 2 3 4 5 6 8 9 10 11 12 13 14 15 16]*) | ([1 2 3 4 5 6 8 9 10 11 12 13 14 15 16]* 7{3}  [1 2 3 4 5 6 8 9 10 11 12 13 14 15 16]*) | ([1 2 3 4 5 6 8 9 10 11 12 13 14 15 16]* 7{1} [1 2 3 4 5 6 8 9 10 11 12 13 14 15 16] [1 2 3 4 5 6 8 9 10 11 12 13 14 15 16]{9} 7{1} [1 2 3 4 5 6 8 9 10 11 12 13 14 15 16] [1 2 3 4 5 6 8 9 10 11 12 13 14 15 16]{9} 7{1}  [1 2 3 4 5 6 8 9 10 11 12 13 14 15 16]*) | ([1 2 3 4 5 6 8 9 10 11 12 13 14 15 16]* 7{3}  [1 2 3 4 5 6 8 9 10 11 12 13 14 15 16]*) | ([1 2 3 4 5 6 8 9 10 11 12 13 14 15 16]* 7{1} [1 2 3 4 5 6 8 9 10 11 12 13 14 15 16] [1 2 3 4 5 6 8 9 10 11 12 13 14 15 16]{9} 7{1} [1 2 3 4 5 6 8 9 10 11 12 13 14 15 16] [1 2 3 4 5 6 8 9 10 11 12 13 14 15 16]{9} 7{1}  [1 2 3 4 5 6 8 9 10 11 12 13 14 15 16]*) | ([1 2 3 4 5 6 8 9 10 11 12 13 14 15 16]* 7{3}  [1 2 3 4 5 6 8 9 10 11 12 13 14 15 16]*) | ([1 2 3 4 5 6 8 9 10 11 12 13 14 15 16]* 7{1} [1 2 3 4 5 6 8 9 10 11 12 13 14 15 16]{9} [1 2 3 4 5 6 8 9 10 11 12 13 14 15 16] 7{1} [1 2 3 4 5 6 8 9 10 11 12 13 14 15 16]{9} [1 2 3 4 5 6 8 9 10 11 12 13 14 15 16] 7{1}  [1 2 3 4 5 6 8 9 10 11 12 13 14 15 16]*) )",
    "( ([1 2 3 4 5 6 7 9 10 11 12 13 14 15 16]* 8{5} [1 2 3 4 5 6 7 9 10 11 12 13 14 15 16]{2} [1 2 3 4 5 6 7 9 10 11 12 13 14 15 16] [1 2 3 4 5 6 7 9 10 11 12 13 14 15 16]{3} 8{5} [1 2 3 4 5 6 7 9 10 11 12 13 14 15 16]{2} [1 2 3 4 5 6 7 9 10 11 12 13 14 15 16] [1 2 3 4 5 6 7 9 10 11 12 13 14 15 16]{3} 8{5} [1 2 3 4 5 6 7 9 10 11 12 13 14 15 16]{2} [1 2 3 4 5 6 7 9 10 11 12 13 14 15 16] [1 2 3 4 5 6 7 9 10 11 12 13 14 15 16]{2} 8{2} [1 2 3 4 5 6 7 9 10 11 12 13 14 15 16]{1} 8{2}  [1 2 3 4 5 6 7 9 10 11 12 13 14 15 16]*) | ([1 2 3 4 5 6 7 9 10 11 12 13 14 15 16]* 8{1} [1 2 3 4 5 6 7 9 10 11 12 13 14 15 16]{9} [1 2 3 4 5 6 7 9 10 11 12 13 14 15 16] 8{4} [1 2 3 4 5 6 7 9 10 11 12 13 14 15 16]{6} [1 2 3 4 5 6 7 9 10 11 12 13 14 15 16] [1 2 3 4 5 6 7 9 10 11 12 13 14 15 16]{1} 8{3} [1 2 3 4 5 6 7 9 10 11 12 13 14 15 16]{6} [1 2 3 4 5 6 7 9 10 11 12 13 14 15 16] 8{4} [1 2 3 4 5 6 7 9 10 11 12 13 14 15 16]{6} [1 2 3 4 5 6 7 9 10 11 12 13 14 15 16] 8{4} [1 2 3 4 5 6 7 9 10 11 12 13 14 15 16]{6} [1 2 3 4 5 6 7 9 10 11 12 13 14 15 16] [1 2 3 4 5 6 7 9 10 11 12 13 14 15 16]{1} 8{3}  [1 2 3 4 5 6 7 9 10 11 12 13 14 15 16]*) | ([1 2 3 4 5 6 7 9 10 11 12 13 14 15 16]* 8{2} [1 2 3 4 5 6 7 9 10 11 12 13 14 15 16]{1} 8{2} [1 2 3 4 5 6 7 9 10 11 12 13 14 15 16]{2} [1 2 3 4 5 6 7 9 10 11 12 13 14 15 16] [1 2 3 4 5 6 7 9 10 11 12 13 14 15 16]{2} 8{5} [1 2 3 4 5 6 7 9 10 11 12 13 14 15 16]{3} [1 2 3 4 5 6 7 9 10 11 12 13 14 15 16] [1 2 3 4 5 6 7 9 10 11 12 13 14 15 16]{2} 8{5} [1 2 3 4 5 6 7 9 10 11 12 13 14 15 16]{3} [1 2 3 4 5 6 7 9 10 11 12 13 14 15 16] [1 2 3 4 5 6 7 9 10 11 12 13 14 15 16]{2} 8{5}  [1 2 3 4 5 6 7 9 10 11 12 13 14 15 16]*) | ([1 2 3 4 5 6 7 9 10 11 12 13 14 15 16]* 8{3} [1 2 3 4 5 6 7 9 10 11 12 13 14 15 16]{1} [1 2 3 4 5 6 7 9 10 11 12 13 14 15 16] [1 2 3 4 5 6 7 9 10 11 12 13 14 15 16]{6} 8{4} [1 2 3 4 5 6 7 9 10 11 12 13 14 15 16] [1 2 3 4 5 6 7 9 10 11 12 13 14 15 16]{6} 8{4} [1 2 3 4 5 6 7 9 10 11 12 13 14 15 16] [1 2 3 4 5 6 7 9 10 11 12 13 14 15 16]{6} 8{3} [1 2 3 4 5 6 7 9 10 11 12 13 14 15 16]{1} [1 2 3 4 5 6 7 9 10 11 12 13 14 15 16] [1 2 3 4 5 6 7 9 10 11 12 13 14 15 16]{6} 8{4} [1 2 3 4 5 6 7 9 10 11 12 13 14 15 16] [1 2 3 4 5 6 7 9 10 11 12 13 14 15 16]{9} 8{1}  [1 2 3 4 5 6 7 9 10 11 12 13 14 15 16]*) | ([1 2 3 4 5 6 7 9 10 11 12 13 14 15 16]* 8{5} [1 2 3 4 5 6 7 9 10 11 12 13 14 15 16]{3} [1 2 3 4 5 6 7 9 10 11 12 13 14 15 16] [1 2 3 4 5 6 7 9 10 11 12 13 14 15 16]{2} 8{5} [1 2 3 4 5 6 7 9 10 11 12 13 14 15 16]{3} [1 2 3 4 5 6 7 9 10 11 12 13 14 15 16] [1 2 3 4 5 6 7 9 10 11 12 13 14 15 16]{2} 8{5} [1 2 3 4 5 6 7 9 10 11 12 13 14 15 16]{3} [1 2 3 4 5 6 7 9 10 11 12 13 14 15 16] [1 2 3 4 5 6 7 9 10 11 12 13 14 15 16]{3} 8{2} [1 2 3 4 5 6 7 9 10 11 12 13 14 15 16]{1} 8{2}  [1 2 3 4 5 6 7 9 10 11 12 13 14 15 16]*) | ([1 2 3 4 5 6 7 9 10 11 12 13 14 15 16]* 8{1} [1 2 3 4 5 6 7 9 10 11 12 13 14 15 16] [1 2 3 4 5 6 7 9 10 11 12 13 14 15 16]{6} 8{4} [1 2 3 4 5 6 7 9 10 11 12 13 14 15 16] [1 2 3 4 5 6 7 9 10 11 12 13 14 15 16]{6} 8{3} [1 2 3 4 5 6 7 9 10 11 12 13 14 15 16]{1} [1 2 3 4 5 6 7 9 10 11 12 13 14 15 16] [1 2 3 4 5 6 7 9 10 11 12 13 14 15 16]{6} 8{4} [1 2 3 4 5 6 7 9 10 11 12 13 14 15 16] [1 2 3 4 5 6 7 9 10 11 12 13 14 15 16]{6} 8{4} [1 2 3 4 5 6 7 9 10 11 12 13 14 15 16] [1 2 3 4 5 6 7 9 10 11 12 13 14 15 16]{6} 8{3}  [1 2 3 4 5 6 7 9 10 11 12 13 14 15 16]*) | ([1 2 3 4 5 6 7 9 10 11 12 13 14 15 16]* 8{2} [1 2 3 4 5 6 7 9 10 11 12 13 14 15 16]{1} 8{2} [1 2 3 4 5 6 7 9 10 11 12 13 14 15 16]{3} [1 2 3 4 5 6 7 9 10 11 12 13 14 15 16] [1 2 3 4 5 6 7 9 10 11 12 13 14 15 16]{3} 8{5} [1 2 3 4 5 6 7 9 10 11 12 13 14 15 16]{2} [1 2 3 4 5 6 7 9 10 11 12 13 14 15 16] [1 2 3 4 5 6 7 9 10 11 12 13 14 15 16]{3} 8{5} [1 2 3 4 5 6 7 9 10 11 12 13 14 15 16]{2} [1 2 3 4 5 6 7 9 10 11 12 13 14 15 16] [1 2 3 4 5 6 7 9 10 11 12 13 14 15 16]{3} 8{5}  [1 2 3 4 5 6 7 9 10 11 12 13 14 15 16]*) | ([1 2 3 4 5 6 7 9 10 11 12 13 14 15 16]* 8{3} [1 2 3 4 5 6 7 9 10 11 12 13 14 15 16]{6} [1 2 3 4 5 6 7 9 10 11 12 13 14 15 16] 8{4} [1 2 3 4 5 6 7 9 10 11 12 13 14 15 16]{6} [1 2 3 4 5 6 7 9 10 11 12 13 14 15 16] 8{4} [1 2 3 4 5 6 7 9 10 11 12 13 14 15 16]{6} [1 2 3 4 5 6 7 9 10 11 12 13 14 15 16] [1 2 3 4 5 6 7 9 10 11 12 13 14 15 16]{1} 8{3} [1 2 3 4 5 6 7 9 10 11 12 13 14 15 16]{6} [1 2 3 4 5 6 7 9 10 11 12 13 14 15 16] 8{4} [1 2 3 4 5 6 7 9 10 11 12 13 14 15 16]{6} [1 2 3 4 5 6 7 9 10 11 12 13 14 15 16] 8{1}  [1 2 3 4 5 6 7 9 10 11 12 13 14 15 16]*) )",
    "( ([1 2 3 4 5 6 7 8 10 11 12 13 14 15 16]* 9{1}  [1 2 3 4 5 6 7 8 10 11 12 13 14 15 16]*) | ([1 2 3 4 5 6 7 8 10 11 12 13 14 15 16]* 9{1}  [1 2 3 4 5 6 7 8 10 11 12 13 14 15 16]*) | ([1 2 3 4 5 6 7 8 10 11 12 13 14 15 16]* 9{1}  [1 2 3 4 5 6 7 8 10 11 12 13 14 15 16]*) | ([1 2 3 4 5 6 7 8 10 11 12 13 14 15 16]* 9{1}  [1 2 3 4 5 6 7 8 10 11 12 13 14 15 16]*) | ([1 2 3 4 5 6 7 8 10 11 12 13 14 15 16]* 9{1}  [1 2 3 4 5 6 7 8 10 11 12 13 14 15 16]*) | ([1 2 3 4 5 6 7 8 10 11 12 13 14 15 16]* 9{1}  [1 2 3 4 5 6 7 8 10 11 12 13 14 15 16]*) | ([1 2 3 4 5 6 7 8 10 11 12 13 14 15 16]* 9{1}  [1 2 3 4 5 6 7 8 10 11 12 13 14 15 16]*) | ([1 2 3 4 5 6 7 8 10 11 12 13 14 15 16]* 9{1}  [1 2 3 4 5 6 7 8 10 11 12 13 14 15 16]*) )",
    "( ([1 2 3 4 5 6 7 8 9 11 12 13 14 15 16]* 10{3} [1 2 3 4 5 6 7 8 9 11 12 13 14 15 16] [1 2 3 4 5 6 7 8 9 11 12 13 14 15 16]{7} 10{2} [1 2 3 4 5 6 7 8 9 11 12 13 14 15 16]{1} [1 2 3 4 5 6 7 8 9 11 12 13 14 15 16] [1 2 3 4 5 6 7 8 9 11 12 13 14 15 16]{7} 10{3} [1 2 3 4 5 6 7 8 9 11 12 13 14 15 16] [1 2 3 4 5 6 7 8 9 11 12 13 14 15 16]{8} 10{2}  [1 2 3 4 5 6 7 8 9 11 12 13 14 15 16]*) | ([1 2 3 4 5 6 7 8 9 11 12 13 14 15 16]* 10{3} [1 2 3 4 5 6 7 8 9 11 12 13 14 15 16]{2} [1 2 3 4 5 6 7 8 9 11 12 13 14 15 16] [1 2 3 4 5 6 7 8 9 11 12 13 14 15 16]{4} 10{4} [1 2 3 4 5 6 7 8 9 11 12 13 14 15 16]{2} [1 2 3 4 5 6 7 8 9 11 12 13 14 15 16] [1 2 3 4 5 6 7 8 9 11 12 13 14 15 16]{4} 10{2} [1 2 3 4 5 6 7 8 9 11 12 13 14 15 16]{1} 10{1}  [1 2 3 4 5 6 7 8 9 11 12 13 14 15 16]*) | ([1 2 3 4 5 6 7 8 9 11 12 13 14 15 16]* 10{2} [1 2 3 4 5 6 7 8 9 11 12 13 14 15 16]{8} [1 2 3 4 5 6 7 8 9 11 12 13 14 15 16] 10{3} [1 2 3 4 5 6 7 8 9 11 12 13 14 15 16]{7} [1 2 3 4 5 6 7 8 9 11 12 13 14 15 16] [1 2 3 4 5 6 7 8 9 11 12 13 14 15 16]{1} 10{2} [1 2 3 4 5 6 7 8 9 11 12 13 14 15 16]{7} [1 2 3 4 5 6 7 8 9 11 12 13 14 15 16] 10{3}  [1 2 3 4 5 6 7 8 9 11 12 13 14 15 16]*) | ([1 2 3 4 5 6 7 8 9 11 12 13 14 15 16]* 10{1} [1 2 3 4 5 6 7 8 9 11 12 13 14 15 16]{1} 10{2} [1 2 3 4 5 6 7 8 9 11 12 13 14 15 16]{4} [1 2 3 4 5 6 7 8 9 11 12 13 14 15 16] [1 2 3 4 5 6 7 8 9 11 12 13 14 15 16]{2} 10{4} [1 2 3 4 5 6 7 8 9 11 12 13 14 15 16]{4} [1 2 3 4 5 6 7 8 9 11 12 13 14 15 16] [1 2 3 4 5 6 7 8 9 11 12 13 14 15 16]{2} 10{3}  [1 2 3 4 5 6 7 8 9 11 12 13 14 15 16]*) | ([1 2 3 4 5 6 7 8 9 11 12 13 14 15 16]* 10{3} [1 2 3 4 5 6 7 8 9 11 12 13 14 15 16]{7} [1 2 3 4 5 6 7 8 9 11 12 13 14 15 16] [1 2 3 4 5 6 7 8 9 11 12 13 14 15 16]{1} 10{2} [1 2 3 4 5 6 7 8 9 11 12 13 14 15 16]{7} [1 2 3 4 5 6 7 8 9 11 12 13 14 15 16] 10{3} [1 2 3 4 5 6 7 8 9 11 12 13 14 15 16]{7} [1 2 3 4 5 6 7 8 9 11 12 13 14 15 16] 10{2}  [1 2 3 4 5 6 7 8 9 11 12 13 14 15 16]*) | ([1 2 3 4 5 6 7 8 9 11 12 13 14 15 16]* 10{3} [1 2 3 4 5 6 7 8 9 11 12 13 14 15 16]{5} [1 2 3 4 5 6 7 8 9 11 12 13 14 15 16] [1 2 3 4 5 6 7 8 9 11 12 13 14 15 16]{2} 10{4} [1 2 3 4 5 6 7 8 9 11 12 13 14 15 16]{4} [1 2 3 4 5 6 7 8 9 11 12 13 14 15 16] [1 2 3 4 5 6 7 8 9 11 12 13 14 15 16]{2} 10{1} [1 2 3 4 5 6 7 8 9 11 12 13 14 15 16]{1} 10{2}  [1 2 3 4 5 6 7 8 9 11 12 13 14 15 16]*) | ([1 2 3 4 5 6 7 8 9 11 12 13 14 15 16]* 10{2} [1 2 3 4 5 6 7 8 9 11 12 13 14 15 16] [1 2 3 4 5 6 7 8 9 11 12 13 14 15 16]{7} 10{3} [1 2 3 4 5 6 7 8 9 11 12 13 14 15 16] [1 2 3 4 5 6 7 8 9 11 12 13 14 15 16]{7} 10{2} [1 2 3 4 5 6 7 8 9 11 12 13 14 15 16]{1} [1 2 3 4 5 6 7 8 9 11 12 13 14 15 16] [1 2 3 4 5 6 7 8 9 11 12 13 14 15 16]{7} 10{3}  [1 2 3 4 5 6 7 8 9 11 12 13 14 15 16]*) | ([1 2 3 4 5 6 7 8 9 11 12 13 14 15 16]* 10{2} [1 2 3 4 5 6 7 8 9 11 12 13 14 15 16]{1} 10{1} [1 2 3 4 5 6 7 8 9 11 12 13 14 15 16]{2} [1 2 3 4 5 6 7 8 9 11 12 13 14 15 16] [1 2 3 4 5 6 7 8 9 11 12 13 14 15 16]{4} 10{4} [1 2 3 4 5 6 7 8 9 11 12 13 14 15 16]{2} [1 2 3 4 5 6 7 8 9 11 12 13 14 15 16] [1 2 3 4 5 6 7 8 9 11 12 13 14 15 16]{5} 10{3}  [1 2 3 4 5 6 7 8 9 11 12 13 14 15 16]*) )",
    "( ([1 2 3 4 5 6 7 8 9 10 12 13 14 15 16]* 11{3} [1 2 3 4 5 6 7 8 9 10 12 13 14 15 16]{4} [1 2 3 4 5 6 7 8 9 10 12 13 14 15 16] [1 2 3 4 5 6 7 8 9 10 12 13 14 15 16]{3} 11{4} [1 2 3 4 5 6 7 8 9 10 12 13 14 15 16]{3} [1 2 3 4 5 6 7 8 9 10 12 13 14 15 16] [1 2 3 4 5 6 7 8 9 10 12 13 14 15 16]{2} 11{2} [1 2 3 4 5 6 7 8 9 10 12 13 14 15 16]{1} 11{3} [1 2 3 4 5 6 7 8 9 10 12 13 14 15 16]{2} [1 2 3 4 5 6 7 8 9 10 12 13 14 15 16] 11{3} [1 2 3 4 5 6 7 8 9 10 12 13 14 15 16]{7} [1 2 3 4 5 6 7 8 9 10 12 13 14 15 16] 11{3} [1 2 3 4 5 6 7 8 9 10 12 13 14 15 16]{7} [1 2 3 4 5 6 7 8 9 10 12 13 14 15 16] 11{3} [1 2 3 4 5 6 7 8 9 10 12 13 14 15 16]{7} [1 2 3 4 5 6 7 8 9 10 12 13 14 15 16] 11{2}  [1 2 3 4 5 6 7 8 9 10 12 13 14 15 16]*) | ([1 2 3 4 5 6 7 8 9 10 12 13 14 15 16]* 11{4} [1 2 3 4 5 6 7 8 9 10 12 13 14 15 16]{6} [1 2 3 4 5 6 7 8 9 10 12 13 14 15 16] 11{4} [1 2 3 4 5 6 7 8 9 10 12 13 14 15 16]{6} [1 2 3 4 5 6 7 8 9 10 12 13 14 15 16] [1 2 3 4 5 6 7 8 9 10 12 13 14 15 16]{1} 11{4} [1 2 3 4 5 6 7 8 9 10 12 13 14 15 16]{5} [1 2 3 4 5 6 7 8 9 10 12 13 14 15 16] [1 2 3 4 5 6 7 8 9 10 12 13 14 15 16]{4} 11{3} [1 2 3 4 5 6 7 8 9 10 12 13 14 15 16]{3} [1 2 3 4 5 6 7 8 9 10 12 13 14 15 16] [1 2 3 4 5 6 7 8 9 10 12 13 14 15 16]{5} 11{2} [1 2 3 4 5 6 7 8 9 10 12 13 14 15 16]{3} [1 2 3 4 5 6 7 8 9 10 12 13 14 15 16] [1 2 3 4 5 6 7 8 9 10 12 13 14 15 16]{4} 11{3} [1 2 3 4 5 6 7 8 9 10 12 13 14 15 16]{3} [1 2 3 4 5 6 7 8 9 10 12 13 14 15 16] [1 2 3 4 5 6 7 8 9 10 12 13 14 15 16]{4} 11{2} [1 2 3 4 5 6 7 8 9 10 12 13 14 15 16]{4} [1 2 3 4 5 6 7 8 9 10 12 13 14 15 16] [1 2 3 4 5 6 7 8 9 10 12 13 14 15 16]{4} 11{1}  [1 2 3 4 5 6 7 8 9 10 12 13 14 15 16]*) | ([1 2 3 4 5 6 7 8 9 10 12 13 14 15 16]* 11{2} [1 2 3 4 5 6 7 8 9 10 12 13 14 15 16] [1 2 3 4 5 6 7 8 9 10 12 13 14 15 16]{7} 11{3} [1 2 3 4 5 6 7 8 9 10 12 13 14 15 16] [1 2 3 4 5 6 7 8 9 10 12 13 14 15 16]{7} 11{3} [1 2 3 4 5 6 7 8 9 10 12 13 14 15 16] [1 2 3 4 5 6 7 8 9 10 12 13 14 15 16]{7} 11{3} [1 2 3 4 5 6 7 8 9 10 12 13 14 15 16] [1 2 3 4 5 6 7 8 9 10 12 13 14 15 16]{2} 11{3} [1 2 3 4 5 6 7 8 9 10 12 13 14 15 16]{1} 11{2} [1 2 3 4 5 6 7 8 9 10 12 13 14 15 16]{2} [1 2 3 4 5 6 7 8 9 10 12 13 14 15 16] [1 2 3 4 5 6 7 8 9 10 12 13 14 15 16]{3} 11{4} [1 2 3 4 5 6 7 8 9 10 12 13 14 15 16]{3} [1 2 3 4 5 6 7 8 9 10 12 13 14 15 16] [1 2 3 4 5 6 7 8 9 10 12 13 14 15 16]{4} 11{3}  [1 2 3 4 5 6 7 8 9 10 12 13 14 15 16]*) | ([1 2 3 4 5 6 7 8 9 10 12 13 14 15 16]* 11{1} [1 2 3 4 5 6 7 8 9 10 12 13 14 15 16]{4} [1 2 3 4 5 6 7 8 9 10 12 13 14 15 16] [1 2 3 4 5 6 7 8 9 10 12 13 14 15 16]{4} 11{2} [1 2 3 4 5 6 7 8 9 10 12 13 14 15 16]{4} [1 2 3 4 5 6 7 8 9 10 12 13 14 15 16] [1 2 3 4 5 6 7 8 9 10 12 13 14 15 16]{3} 11{3} [1 2 3 4 5 6 7 8 9 10 12 13 14 15 16]{4} [1 2 3 4 5 6 7 8 9 10 12 13 14 15 16] [1 2 3 4 5 6 7 8 9 10 12 13 14 15 16]{3} 11{2} [1 2 3 4 5 6 7 8 9 10 12 13 14 15 16]{5} [1 2 3 4 5 6 7 8 9 10 12 13 14 15 16] [1 2 3 4 5 6 7 8 9 10 12 13 14 15 16]{3} 11{3} [1 2 3 4 5 6 7 8 9 10 12 13 14 15 16]{4} [1 2 3 4 5 6 7 8 9 10 12 13 14 15 16] [1 2 3 4 5 6 7 8 9 10 12 13 14 15 16]{5} 11{4} [1 2 3 4 5 6 7 8 9 10 12 13 14 15 16]{1} [1 2 3 4 5 6 7 8 9 10 12 13 14 15 16] [1 2 3 4 5 6 7 8 9 10 12 13 14 15 16]{6} 11{4} [1 2 3 4 5 6 7 8 9 10 12 13 14 15 16] [1 2 3 4 5 6 7 8 9 10 12 13 14 15 16]{6} 11{4}  [1 2 3 4 5 6 7 8 9 10 12 13 14 15 16]*) | ([1 2 3 4 5 6 7 8 9 10 12 13 14 15 16]* 11{3} [1 2 3 4 5 6 7 8 9 10 12 13 14 15 16]{3} [1 2 3 4 5 6 7 8 9 10 12 13 14 15 16] [1 2 3 4 5 6 7 8 9 10 12 13 14 15 16]{3} 11{4} [1 2 3 4 5 6 7 8 9 10 12 13 14 15 16]{3} [1 2 3 4 5 6 7 8 9 10 12 13 14 15 16] [1 2 3 4 5 6 7 8 9 10 12 13 14 15 16]{2} 11{3} [1 2 3 4 5 6 7 8 9 10 12 13 14 15 16]{1} 11{2} [1 2 3 4 5 6 7 8 9 10 12 13 14 15 16]{2} [1 2 3 4 5 6 7 8 9 10 12 13 14 15 16] [1 2 3 4 5 6 7 8 9 10 12 13 14 15 16]{7} 11{3} [1 2 3 4 5 6 7 8 9 10 12 13 14 15 16] [1 2 3 4 5 6 7 8 9 10 12 13 14 15 16]{7} 11{3} [1 2 3 4 5 6 7 8 9 10 12 13 14 15 16] [1 2 3 4 5 6 7 8 9 10 12 13 14 15 16]{7} 11{3} [1 2 3 4 5 6 7 8 9 10 12 13 14 15 16] [1 2 3 4 5 6 7 8 9 10 12 13 14 15 16]{8} 11{2}  [1 2 3 4 5 6 7 8 9 10 12 13 14 15 16]*) | ([1 2 3 4 5 6 7 8 9 10 12 13 14 15 16]* 11{4} [1 2 3 4 5 6 7 8 9 10 12 13 14 15 16] [1 2 3 4 5 6 7 8 9 10 12 13 14 15 16]{6} 11{4} [1 2 3 4 5 6 7 8 9 10 12 13 14 15 16] [1 2 3 4 5 6 7 8 9 10 12 13 14 15 16]{5} 11{4} [1 2 3 4 5 6 7 8 9 10 12 13 14 15 16]{1} [1 2 3 4 5 6 7 8 9 10 12 13 14 15 16] [1 2 3 4 5 6 7 8 9 10 12 13 14 15 16]{3} 11{3} [1 2 3 4 5 6 7 8 9 10 12 13 14 15 16]{4} [1 2 3 4 5 6 7 8 9 10 12 13 14 15 16] [1 2 3 4 5 6 7 8 9 10 12 13 14 15 16]{3} 11{2} [1 2 3 4 5 6 7 8 9 10 12 13 14 15 16]{5} [1 2 3 4 5 6 7 8 9 10 12 13 14 15 16] [1 2 3 4 5 6 7 8 9 10 12 13 14 15 16]{3} 11{3} [1 2 3 4 5 6 7 8 9 10 12 13 14 15 16]{4} [1 2 3 4 5 6 7 8 9 10 12 13 14 15 16] [1 2 3 4 5 6 7 8 9 10 12 13 14 15 16]{4} 11{2} [1 2 3 4 5 6 7 8 9 10 12 13 14 15 16]{4} [1 2 3 4 5 6 7 8 9 10 12 13 14 15 16] [1 2 3 4 5 6 7 8 9 10 12 13 14 15 16]{5} 11{1}  [1 2 3 4 5 6 7 8 9 10 12 13 14 15 16]*) | ([1 2 3 4 5 6 7 8 9 10 12 13 14 15 16]* 11{2} [1 2 3 4 5 6 7 8 9 10 12 13 14 15 16]{8} [1 2 3 4 5 6 7 8 9 10 12 13 14 15 16] 11{3} [1 2 3 4 5 6 7 8 9 10 12 13 14 15 16]{7} [1 2 3 4 5 6 7 8 9 10 12 13 14 15 16] 11{3} [1 2 3 4 5 6 7 8 9 10 12 13 14 15 16]{7} [1 2 3 4 5 6 7 8 9 10 12 13 14 15 16] 11{3} [1 2 3 4 5 6 7 8 9 10 12 13 14 15 16]{7} [1 2 3 4 5 6 7 8 9 10 12 13 14 15 16] [1 2 3 4 5 6 7 8 9 10 12 13 14 15 16]{2} 11{2} [1 2 3 4 5 6 7 8 9 10 12 13 14 15 16]{1} 11{3} [1 2 3 4 5 6 7 8 9 10 12 13 14 15 16]{2} [1 2 3 4 5 6 7 8 9 10 12 13 14 15 16] [1 2 3 4 5 6 7 8 9 10 12 13 14 15 16]{3} 11{4} [1 2 3 4 5 6 7 8 9 10 12 13 14 15 16]{3} [1 2 3 4 5 6 7 8 9 10 12 13 14 15 16] [1 2 3 4 5 6 7 8 9 10 12 13 14 15 16]{3} 11{3}  [1 2 3 4 5 6 7 8 9 10 12 13 14 15 16]*) | ([1 2 3 4 5 6 7 8 9 10 12 13 14 15 16]* 11{1} [1 2 3 4 5 6 7 8 9 10 12 13 14 15 16]{5} [1 2 3 4 5 6 7 8 9 10 12 13 14 15 16] [1 2 3 4 5 6 7 8 9 10 12 13 14 15 16]{4} 11{2} [1 2 3 4 5 6 7 8 9 10 12 13 14 15 16]{4} [1 2 3 4 5 6 7 8 9 10 12 13 14 15 16] [1 2 3 4 5 6 7 8 9 10 12 13 14 15 16]{4} 11{3} [1 2 3 4 5 6 7 8 9 10 12 13 14 15 16]{3} [1 2 3 4 5 6 7 8 9 10 12 13 14 15 16] [1 2 3 4 5 6 7 8 9 10 12 13 14 15 16]{5} 11{2} [1 2 3 4 5 6 7 8 9 10 12 13 14 15 16]{3} [1 2 3 4 5 6 7 8 9 10 12 13 14 15 16] [1 2 3 4 5 6 7 8 9 10 12 13 14 15 16]{4} 11{3} [1 2 3 4 5 6 7 8 9 10 12 13 14 15 16]{3} [1 2 3 4 5 6 7 8 9 10 12 13 14 15 16] [1 2 3 4 5 6 7 8 9 10 12 13 14 15 16]{1} 11{4} [1 2 3 4 5 6 7 8 9 10 12 13 14 15 16]{5} [1 2 3 4 5 6 7 8 9 10 12 13 14 15 16] 11{4} [1 2 3 4 5 6 7 8 9 10 12 13 14 15 16]{6} [1 2 3 4 5 6 7 8 9 10 12 13 14 15 16] 11{4}  [1 2 3 4 5 6 7 8 9 10 12 13 14 15 16]*) )",
    "( ([1 2 3 4 5 6 7 8 9 10 11 13 14 15 16]* 12{1} [1 2 3 4 5 6 7 8 9 10 11 13 14 15 16]{2} [1 2 3 4 5 6 7 8 9 10 11 13 14 15 16] [1 2 3 4 5 6 7 8 9 10 11 13 14 15 16]{7} 12{2}  [1 2 3 4 5 6 7 8 9 10 11 13 14 15 16]*) | ([1 2 3 4 5 6 7 8 9 10 11 13 14 15 16]* 12{2} [1 2 3 4 5 6 7 8 9 10 11 13 14 15 16] [1 2 3 4 5 6 7 8 9 10 11 13 14 15 16]{8} 12{1}  [1 2 3 4 5 6 7 8 9 10 11 13 14 15 16]*) | ([1 2 3 4 5 6 7 8 9 10 11 13 14 15 16]* 12{2} [1 2 3 4 5 6 7 8 9 10 11 13 14 15 16]{7} [1 2 3 4 5 6 7 8 9 10 11 13 14 15 16] [1 2 3 4 5 6 7 8 9 10 11 13 14 15 16]{2} 12{1}  [1 2 3 4 5 6 7 8 9 10 11 13 14 15 16]*) | ([1 2 3 4 5 6 7 8 9 10 11 13 14 15 16]* 12{1} [1 2 3 4 5 6 7 8 9 10 11 13 14 15 16]{8} [1 2 3 4 5 6 7 8 9 10 11 13 14 15 16] 12{2}  [1 2 3 4 5 6 7 8 9 10 11 13 14 15 16]*) | ([1 2 3 4 5 6 7 8 9 10 11 13 14 15 16]* 12{1} [1 2 3 4 5 6 7 8 9 10 11 13 14 15 16]{7} [1 2 3 4 5 6 7 8 9 10 11 13 14 15 16] [1 2 3 4 5 6 7 8 9 10 11 13 14 15 16]{1} 12{2}  [1 2 3 4 5 6 7 8 9 10 11 13 14 15 16]*) | ([1 2 3 4 5 6 7 8 9 10 11 13 14 15 16]* 12{2} [1 2 3 4 5 6 7 8 9 10 11 13 14 15 16]{8} [1 2 3 4 5 6 7 8 9 10 11 13 14 15 16] [1 2 3 4 5 6 7 8 9 10 11 13 14 15 16]{1} 12{1}  [1 2 3 4 5 6 7 8 9 10 11 13 14 15 16]*) | ([1 2 3 4 5 6 7 8 9 10 11 13 14 15 16]* 12{2} [1 2 3 4 5 6 7 8 9 10 11 13 14 15 16]{1} [1 2 3 4 5 6 7 8 9 10 11 13 14 15 16] [1 2 3 4 5 6 7 8 9 10 11 13 14 15 16]{7} 12{1}  [1 2 3 4 5 6 7 8 9 10 11 13 14 15 16]*) | ([1 2 3 4 5 6 7 8 9 10 11 13 14 15 16]* 12{1} [1 2 3 4 5 6 7 8 9 10 11 13 14 15 16]{1} [1 2 3 4 5 6 7 8 9 10 11 13 14 15 16] [1 2 3 4 5 6 7 8 9 10 11 13 14 15 16]{8} 12{2}  [1 2 3 4 5 6 7 8 9 10 11 13 14 15 16]*) )",
    "( ([1 2 3 4 5 6 7 8 9 10 11 12 14 15 16]* 13{2} [1 2 3 4 5 6 7 8 9 10 11 12 14 15 16] [1 2 3 4 5 6 7 8 9 10 11 12 14 15 16]{8} 13{2} [1 2 3 4 5 6 7 8 9 10 11 12 14 15 16] [1 2 3 4 5 6 7 8 9 10 11 12 14 15 16]{8} 13{2}  [1 2 3 4 5 6 7 8 9 10 11 12 14 15 16]*) | ([1 2 3 4 5 6 7 8 9 10 11 12 14 15 16]* 13{3} [1 2 3 4 5 6 7 8 9 10 11 12 14 15 16]{6} [1 2 3 4 5 6 7 8 9 10 11 12 14 15 16] [1 2 3 4 5 6 7 8 9 10 11 12 14 15 16]{1} 13{3}  [1 2 3 4 5 6 7 8 9 10 11 12 14 15 16]*) | ([1 2 3 4 5 6 7 8 9 10 11 12 14 15 16]* 13{2} [1 2 3 4 5 6 7 8 9 10 11 12 14 15 16]{8} [1 2 3 4 5 6 7 8 9 10 11 12 14 15 16] 13{2} [1 2 3 4 5 6 7 8 9 10 11 12 14 15 16]{8} [1 2 3 4 5 6 7 8 9 10 11 12 14 15 16] 13{2}  [1 2 3 4 5 6 7 8 9 10 11 12 14 15 16]*) | ([1 2 3 4 5 6 7 8 9 10 11 12 14 15 16]* 13{3} [1 2 3 4 5 6 7 8 9 10 11 12 14 15 16]{1} [1 2 3 4 5 6 7 8 9 10 11 12 14 15 16] [1 2 3 4 5 6 7 8 9 10 11 12 14 15 16]{6} 13{3}  [1 2 3 4 5 6 7 8 9 10 11 12 14 15 16]*) | ([1 2 3 4 5 6 7 8 9 10 11 12 14 15 16]* 13{2} [1 2 3 4 5 6 7 8 9 10 11 12 14 15 16]{8} [1 2 3 4 5 6 7 8 9 10 11 12 14 15 16] 13{2} [1 2 3 4 5 6 7 8 9 10 11 12 14 15 16]{8} [1 2 3 4 5 6 7 8 9 10 11 12 14 15 16] 13{2}  [1 2 3 4 5 6 7 8 9 10 11 12 14 15 16]*) | ([1 2 3 4 5 6 7 8 9 10 11 12 14 15 16]* 13{3} [1 2 3 4 5 6 7 8 9 10 11 12 14 15 16]{1} [1 2 3 4 5 6 7 8 9 10 11 12 14 15 16] [1 2 3 4 5 6 7 8 9 10 11 12 14 15 16]{6} 13{3}  [1 2 3 4 5 6 7 8 9 10 11 12 14 15 16]*) | ([1 2 3 4 5 6 7 8 9 10 11 12 14 15 16]* 13{2} [1 2 3 4 5 6 7 8 9 10 11 12 14 15 16] [1 2 3 4 5 6 7 8 9 10 11 12 14 15 16]{8} 13{2} [1 2 3 4 5 6 7 8 9 10 11 12 14 15 16] [1 2 3 4 5 6 7 8 9 10 11 12 14 15 16]{8} 13{2}  [1 2 3 4 5 6 7 8 9 10 11 12 14 15 16]*) | ([1 2 3 4 5 6 7 8 9 10 11 12 14 15 16]* 13{3} [1 2 3 4 5 6 7 8 9 10 11 12 14 15 16]{6} [1 2 3 4 5 6 7 8 9 10 11 12 14 15 16] [1 2 3 4 5 6 7 8 9 10 11 12 14 15 16]{1} 13{3}  [1 2 3 4 5 6 7 8 9 10 11 12 14 15 16]*) )",
    "( ([1 2 3 4 5 6 7 8 9 10 11 12 13 15 16]* 14{1}  [1 2 3 4 5 6 7 8 9 10 11 12 13 15 16]*) | ([1 2 3 4 5 6 7 8 9 10 11 12 13 15 16]* 14{1}  [1 2 3 4 5 6 7 8 9 10 11 12 13 15 16]*) | ([1 2 3 4 5 6 7 8 9 10 11 12 13 15 16]* 14{1}  [1 2 3 4 5 6 7 8 9 10 11 12 13 15 16]*) | ([1 2 3 4 5 6 7 8 9 10 11 12 13 15 16]* 14{1}  [1 2 3 4 5 6 7 8 9 10 11 12 13 15 16]*) | ([1 2 3 4 5 6 7 8 9 10 11 12 13 15 16]* 14{1}  [1 2 3 4 5 6 7 8 9 10 11 12 13 15 16]*) | ([1 2 3 4 5 6 7 8 9 10 11 12 13 15 16]* 14{1}  [1 2 3 4 5 6 7 8 9 10 11 12 13 15 16]*) | ([1 2 3 4 5 6 7 8 9 10 11 12 13 15 16]* 14{1}  [1 2 3 4 5 6 7 8 9 10 11 12 13 15 16]*) | ([1 2 3 4 5 6 7 8 9 10 11 12 13 15 16]* 14{1}  [1 2 3 4 5 6 7 8 9 10 11 12 13 15 16]*) )",
    "( ([1 2 3 4 5 6 7 8 9 10 11 12 13 14 16]* 15{1}  [1 2 3 4 5 6 7 8 9 10 11 12 13 14 16]*) | ([1 2 3 4 5 6 7 8 9 10 11 12 13 14 16]* 15{1}  [1 2 3 4 5 6 7 8 9 10 11 12 13 14 16]*) | ([1 2 3 4 5 6 7 8 9 10 11 12 13 14 16]* 15{1}  [1 2 3 4 5 6 7 8 9 10 11 12 13 14 16]*) | ([1 2 3 4 5 6 7 8 9 10 11 12 13 14 16]* 15{1}  [1 2 3 4 5 6 7 8 9 10 11 12 13 14 16]*) | ([1 2 3 4 5 6 7 8 9 10 11 12 13 14 16]* 15{1}  [1 2 3 4 5 6 7 8 9 10 11 12 13 14 16]*) | ([1 2 3 4 5 6 7 8 9 10 11 12 13 14 16]* 15{1}  [1 2 3 4 5 6 7 8 9 10 11 12 13 14 16]*) | ([1 2 3 4 5 6 7 8 9 10 11 12 13 14 16]* 15{1}  [1 2 3 4 5 6 7 8 9 10 11 12 13 14 16]*) | ([1 2 3 4 5 6 7 8 9 10 11 12 13 14 16]* 15{1}  [1 2 3 4 5 6 7 8 9 10 11 12 13 14 16]*) )",
];
